%chk=diazi.chk

# pbepbe/6-31G TD=(nstates=1) Symmetry=none Pop=Full Density=current

ejemplo de densidad exitada

0 1
 H    2.599666    1.419831    0.561279
 H    4.480340    1.419766    0.561281
 C    3.540004    1.419783    0.014528
 N    3.540028    2.056953   -1.372522
 N    3.539983    0.782835   -1.372656

