HYBRID 2.0 -- [ Lio-hybrid ] (1 Jun 2018)
>> Start of run:   2-APR-2020  19:01:33

                           ***********************       
                           *  WELCOME TO HYBRID  *       
                           ***********************       

reinit: Reading from standard input
************************** Dump of input data file ****************************
SystemName     PYR
SystemLabel    PYR
CenterMolecule T
CG.Nick_center F
NumberOfAtoms        10
NumberOfSpecies      3
NetCharge 0.0
FixSpin  T
TotalSpin 0.0
MD.MaxForceTol    0.04 eV/Ang
NumberOfSolventAtoms   0
%block ChemicalSpeciesLabel
       1   6  C
       2   1  H
       3   7  N
%endblock ChemicalSpeciesLabel
AtomicCoordinatesFormat  Ang
%block AtomicCoordinatesAndAtomicSpecies
    1.468263    0.155949    0.000145    1
    2.165412    1.363326   -0.000137    1
    0.177830    2.511004   -0.001556    1
   -0.519349    1.303571   -0.000678    1
    1.985074   -0.796486    0.001352    2
    3.248653    1.391886    0.000389    2
   -0.339053    3.463405   -0.002389    2
   -1.602595    1.275093   -0.001088    2
    0.120926    0.117535    0.000088    3
    1.525109    2.549414   -0.001229    3
%endblock AtomicCoordinatesAndAtomicSpecies
QM.level lio
MD.LengthTimeStep 0.5 fs
MD.InitialTemperature 300 K
MD.TrajFrec 1
MD.USeSaveXV   F
MD.HYB_TSH     T
MD.TypeOfRun    verlet
MD.NumCGsteps   30
%block CutOffRadius
QM  0.2
QMMM 1000.0
MM 80
BLO 0.1
MMBLO 8.0
%endblock CutOffRadius
************************** End of input data file *****************************

reinit: -----------------------------------------------------------------------
reinit: System Name: PYR                                                        
reinit: -----------------------------------------------------------------------
reinit: System Label: PYR                 
reinit: -----------------------------------------------------------------------
 Hi Angi!

hybrid: Running with no MM atoms

read:***********************************************************************
read: Atomic-coordinates input format  =     Cartesian coordinates (in Ang)
read: Total number of electrons        =    42
 opt_scheme vale           0
read: Dynamics option                  =     Velocity Verlet MD run
read: Use continuation files for XV    =     F
read: Perform TSH dynamics?            =     T
read: Write coordinates each           =     1  steps
read: MM x QM steps                    =     1
read: Write forces QM-MM               =     1
read: ***********************************************************************
Namelist &lionml not found.

LIO input variables
 ! -- General and theory level: -- !
  Natom =     0, Nsol =        0, charge =     0, Nunp =     0, open =  F,
  basis_set = 6-31G                    fitting_set = DZVP Coulomb Fitting     ,
  int_basis =  T, nMax =   100, Told =  1.00E-06, Etold =  1.00E-01,
  IExch =   9, rMax =    16.000000, rMaxS =     5.000000, IGrid =  2,
  IGrid2 =  2, initial_guess =  0DBug =  F, n_ghosts =    0
 ! -- Convergence acceleration: -- !
  conver_method =  3, Gold =    10.000000, DIIS =  T, NDIIS =  15,
  hybrid_converg =  T, good_cut =  1.00E-03, DIIS_bias =     1.050000,
  DIIS_start =  1.00E-02, bDIIS_start =  1.00E-03, level_shift =  F,
  lvl_shift_en =     0.25000000, lvl_shift_cut =     0.00500000
 ! -- Input and output options: -- !
  verbose =   3, style =  F, timers =   0, writeXYZ =  T, writeForces =  F,
  dipole =  F, mulliken =  F, lowdin =  F, fukui =  F, print_coeffs =  F,
  VCInp =  F, FRestartIn = restart.in               , restart_freq =     0,
  FRestart = restart.out              , TDRestart =  F, writeDens =  F,
  TD_rst_freq =    500, gaussian_convert =  F,
  rst_dens =   0becke =  F
 ! -- TD-DFT and external field: -- !
  timeDep =  0, NTDStep =          0, TDStep =     0.00200000, propagator =  1,
  NBCH =   10, field =  F, a0 =  1000.00000000, epsilon =     1.00000000,
  Fx =     0.00000000, Fy =     0.00000000, Fz =     0.00000000, n_fields_iso =     0,
  n_fields_aniso =     0, field_iso_file = field.in                 ,
  field_aniso_file = fieldaniso.in            , td_do_pop =     0
 ! -- Effective Core Potentials: -- !
  ECPMode =  F, ECPTypes =   0, TipeECP = NOT-DEFINED              ,
  Fock_ECP_read =  F, Fock_ECP_write =  F, cutECP =  T, cut2_0 =    35.00000000,
  cut3_0 =    45.00000000, verbose_ECP =  0, ECP_debug =  F, fullTimer_ECP =  F,
  local_nonlocal =  0, ECP_full_range_int =  F
  ZListECP = 
 ! -- Minimizations and restraints: -- !
  steep =  F, minimzation_steep =     0.05000000, energy_cut =     0.00010000,
  force_cut =     0.00001000, n_min_steeps =   500, lineal_search =  T,
  n_points =     5, number_restr =     0
 ! -- CubeGen: -- !
  CubeGen_only =  F, cube_res =    40, cube_sel =     0, cube_dens =  F,
  cube_orb =  F, cube_elec =  F, cube_dens_file = dens.cube                ,
  cube_orb_file = orb.cube                 , cube_elec_file = dens.cube                
 ! -- GPU Options: -- !
  energy_all_iterations =  F, assign_all_functions =  F, remove_zero_weights =  T,
  max_function_exponent =    10, free_global_memory =     0.00000000,
  sphere_radius =     0.50000000, little_cube_size =    15.50000000,
  min_points_per_cube =     1, gpu_level =     4
 ! -- Transport and TBDFT: -- !
  transport_calc =  F, generate_rho0 =  F, driving_rate =     0.00100000,
  gate_field =  T, pop_drive =   1, save_charge_freq =     1, TBDFT_calc =     0,
  MTB =     0, alfaTB =     0.00000000, betaTB =     0.00000000,
  gammaTB =     0.00000000, start_TDTB =     0,
  end_TDTB =     0, n_biasTB =     0, driving_rateTB=    0.00000000,
  nbias=    0, TB_q_tot =   10, TB_charge_ref=    0.00000000, TB_q_told=    0.00000100
 ! -- Ehrenfest: -- !
  ndyn_steps =      0, edyn_steps =      0, nullify_forces =  F,
  wdip_nfreq =     0, wdip_fname = liorun.dip               , rsti_loads =  F,
  rsto_saves =  F, rsto_nfreq =  F, rsti_fname = liorun.rsti              ,
  rsto_fname = liorun.rsto              , eefld_on =  F, eefld_ampx =    0.00000000,
  eefld_ampy =     0.00000000, eefld_ampz =     0.00000000,
  eefld_timeamp =     0.20000000, eefld_timepos =     1.00000000,
  eefld_timegfh =  F, eefld_timegih =  F, eefld_wavelen =     0.00000000
 ! -- Fock Bias Potentials: -- !
  fockbias_is_active =  F, fockbias_is_shaped =  F, fockbias_timeamp0 =     0.00000000,
  fockbias_timegrow =     0.00000000, fockbias_timefall =     0.00000000,
  fockbias_readfile = atombias.in              
 ! -- DOS and PDOS options: -- !
  dos_calc =  F, pdos_calc =  F, pdos_allb =  F
 ! -- VdW interaction options: -- !
  dftd3 =  F

LIO initialisation.
  GPU Device used: GeForce GTX 1050
  Using 2 CPU Threads and 1 GPU Threads.
 **Using PBE0
  QM atoms: 10 - MM atoms: 0
  Total number of basis: 62 (s: 26 p: 12 d: 0)
  Closed shell calculation - Occupied MO: 21
*Using Libxc

hybrid: Total Free Atoms:     10

vmb: creating a velocity distribution from MB

hybrid:                 ==============================
                            Begin move =      0
                        ==============================
 Optimization level:            3
 atoms QM, MM, totals          10           0          10
 doing SCF? T
 doing forces? T
 
 LIBINT initialization
 Computing Precalculated Integrals
 # of {all, non-negligible} shell-pairs = {741, 728}
 Saving Integrals in Memory
 # of Integrals: 1957020
 Memory requirements 0.0156562 GB

Starting SCF cycles.
  Convergence criteria are: 
   1.00E-06 in Rho mean squared difference,  1.00E-01 Eh in energy differences.
  Step =    1 |Energy =   -193.355281 Eh |ΔRho =  4.04E+00 -ΔEnergy =  1.93E+02
  Step =    2 |Energy =   -197.314103 Eh |ΔRho =  3.03E+00 -ΔEnergy =  3.96E+00
  Step =    3 |Energy =   -205.103086 Eh |ΔRho =  7.58E-01 -ΔEnergy =  7.79E+00
  Step =    4 |Energy =   -211.280368 Eh |ΔRho =  6.67E-01 -ΔEnergy =  6.18E+00
  Step =    5 |Energy =   -217.002946 Eh |ΔRho =  9.91E-01 -ΔEnergy =  5.72E+00
  Step =    6 |Energy =   -221.138263 Eh |ΔRho =  5.28E-01 -ΔEnergy =  4.14E+00
  Step =    7 |Energy =   -224.124324 Eh |ΔRho =  2.32E-01 -ΔEnergy =  2.99E+00
  Step =    8 |Energy =   -226.524484 Eh |ΔRho =  6.50E-02 -ΔEnergy =  2.40E+00
  Step =    9 |Energy =   -227.057792 Eh |ΔRho =  3.14E-02 -ΔEnergy =  5.33E-01
  Step =   10 |Energy =   -227.337673 Eh |ΔRho =  1.88E-02 -ΔEnergy =  2.80E-01
  Step =   11 |Energy =   -227.476069 Eh |ΔRho =  1.26E-02 -ΔEnergy =  1.38E-01
  Step =   12 |Energy =   -227.531949 Eh |ΔRho =  8.93E-03 -ΔEnergy =  5.59E-02
  Step =   13 |Energy =   -227.541765 Eh |ΔRho =  6.61E-03 -ΔEnergy =  9.82E-03
  Step =   14 |Energy =   -227.527882 Eh |ΔRho =  5.04E-03 -ΔEnergy =  1.39E-02
  Step =   15 |Energy =   -227.503427 Eh |ΔRho =  3.94E-03 -ΔEnergy =  2.45E-02
  Step =   16 |Energy =   -227.475699 Eh |ΔRho =  3.15E-03 -ΔEnergy =  2.77E-02
  Step =   17 |Energy =   -227.448488 Eh |ΔRho =  2.57E-03 -ΔEnergy =  2.72E-02
  Step =   18 |Energy =   -227.423566 Eh |ΔRho =  2.13E-03 -ΔEnergy =  2.49E-02
  Step =   19 |Energy =   -227.401593 Eh |ΔRho =  1.80E-03 -ΔEnergy =  2.20E-02
  Step =   20 |Energy =   -227.382649 Eh |ΔRho =  1.54E-03 -ΔEnergy =  1.89E-02
  Step =   21 |Energy =   -227.366538 Eh |ΔRho =  1.33E-03 -ΔEnergy =  1.61E-02
  Step =   22 |Energy =   -227.352947 Eh |ΔRho =  1.17E-03 -ΔEnergy =  1.36E-02
  Step =   23 |Energy =   -227.341537 Eh |ΔRho =  1.03E-03 -ΔEnergy =  1.14E-02
  Step =   24 |Energy =   -227.331982 Eh |ΔRho =  9.06E-04 -ΔEnergy =  9.56E-03
  Step =   25 |Energy =   -227.323989 Eh |ΔRho =  7.87E-03 -ΔEnergy =  7.99E-03
  Step =   26 |Energy =   -227.281141 Eh |ΔRho =  7.14E-03 -ΔEnergy =  4.28E-02
  Step =   27 |Energy =   -227.320259 Eh |ΔRho =  7.29E-04 -ΔEnergy =  3.91E-02
  Step =   28 |Energy =   -227.314149 Eh |ΔRho =  6.43E-03 -ΔEnergy =  6.11E-03
  Step =   29 |Energy =   -227.281116 Eh |ΔRho =  5.84E-03 -ΔEnergy =  3.30E-02
  Step =   30 |Energy =   -227.311255 Eh |ΔRho =  5.89E-04 -ΔEnergy =  3.01E-02
  Step =   31 |Energy =   -227.306588 Eh |ΔRho =  5.26E-03 -ΔEnergy =  4.67E-03
  Step =   32 |Energy =   -227.281116 Eh |ΔRho =  4.78E-03 -ΔEnergy =  2.55E-02
  Step =   33 |Energy =   -227.304342 Eh |ΔRho =  4.78E-04 -ΔEnergy =  2.32E-02
  Step =   34 |Energy =   -227.300778 Eh |ΔRho =  4.31E-03 -ΔEnergy =  3.56E-03
  Step =   35 |Energy =   -227.281116 Eh |ΔRho =  3.92E-03 -ΔEnergy =  1.97E-02
  Step =   36 |Energy =   -227.299036 Eh |ΔRho =  3.88E-04 -ΔEnergy =  1.79E-02
  Step =   37 |Energy =   -227.296311 Eh |ΔRho =  3.53E-03 -ΔEnergy =  2.72E-03
  Step =   38 |Energy =   -227.281116 Eh |ΔRho =  3.21E-03 -ΔEnergy =  1.52E-02
  Step =   39 |Energy =   -227.294959 Eh |ΔRho =  3.16E-04 -ΔEnergy =  1.38E-02
  Step =   40 |Energy =   -227.292875 Eh |ΔRho =  2.90E-03 -ΔEnergy =  2.08E-03
  Step =   41 |Energy =   -227.281116 Eh |ΔRho =  2.63E-03 -ΔEnergy =  1.18E-02
  Step =   42 |Energy =   -227.291826 Eh |ΔRho =  2.58E-04 -ΔEnergy =  1.07E-02
  Step =   43 |Energy =   -227.290229 Eh |ΔRho =  2.38E-03 -ΔEnergy =  1.60E-03
  Step =   44 |Energy =   -227.281116 Eh |ΔRho =  2.16E-03 -ΔEnergy =  9.11E-03
  Step =   45 |Energy =   -227.289413 Eh |ΔRho =  2.11E-04 -ΔEnergy =  8.30E-03
  Step =   46 |Energy =   -227.288188 Eh |ΔRho =  1.95E-03 -ΔEnergy =  1.23E-03
  Step =   47 |Energy =   -227.281116 Eh |ΔRho =  1.78E-03 -ΔEnergy =  7.07E-03
  Step =   48 |Energy =   -227.287554 Eh |ΔRho =  1.72E-04 -ΔEnergy =  6.44E-03
  Step =   49 |Energy =   -227.286612 Eh |ΔRho =  1.61E-03 -ΔEnergy =  9.41E-04
  Step =   50 |Energy =   -227.281116 Eh |ΔRho =  1.46E-03 -ΔEnergy =  5.50E-03
  Step =   51 |Energy =   -227.286119 Eh |ΔRho =  1.41E-04 -ΔEnergy =  5.00E-03
  Step =   52 |Energy =   -227.285394 Eh |ΔRho =  1.32E-03 -ΔEnergy =  7.24E-04
  Step =   53 |Energy =   -227.281116 Eh |ΔRho =  1.20E-03 -ΔEnergy =  4.28E-03
  Step =   54 |Energy =   -227.285009 Eh |ΔRho =  1.15E-04 -ΔEnergy =  3.89E-03
  Step =   55 |Energy =   -227.284451 Eh |ΔRho =  1.09E-03 -ΔEnergy =  5.58E-04
  Step =   56 |Energy =   -227.281116 Eh |ΔRho =  9.88E-04 -ΔEnergy =  3.34E-03
  Step =   57 |Energy =   -227.284151 Eh |ΔRho =  9.88E-04 -ΔEnergy =  3.04E-03
  Step =   58 |Energy =   -227.281116 Eh |ΔRho =  7.50E-12 -ΔEnergy =  3.04E-03
  Convergence achieved in     58 iterations. Final energy   -227.2811155 A.U.

Final Energy Contributions in A.U.
  Total energy =  -263.928879
  One electron =  -766.594790
  Coulomb      =   331.621258
  Nuclear      =   207.692417
  Exch. Corr.  =   -27.830652
  Exact. Exc.  =    -8.817111

 *FCA is not used
 Saving density and derivatives of Ground State
 
 =======================================
         LINEAR RESPONSE - TDA
 =======================================
 
 NCO, NVIRT, M, Mlr                       21   41   62   62
 DIMENSION OF FULL MATRIX             861
 MAX SUBSPACE                       400     
 MAX ITERATIONES                    50
 NUMBER OF INITIAL TRIALS VECTORS     12
 USING FITTING TO ERI?   F
 
 ITERATION:       1
 SUBSPACE:         12
 VECTORS INSIDE:   12
 VectorsError (crit) =       0.0022284 ( 1.00E-07) - EnergyError (crit) =       0.8525306 ( 1.00E-07)
 
 ITERATION:       2
 SUBSPACE:         15
 VECTORS INSIDE:    3
 VectorsError (crit) =       0.0000282 ( 1.00E-07) - EnergyError (crit) =       0.0028476 ( 1.00E-07)
 
 ITERATION:       3
 SUBSPACE:         18
 VECTORS INSIDE:    3
 VectorsError (crit) =       0.0000003 ( 1.00E-07) - EnergyError (crit) =       0.0000366 ( 1.00E-07)
 
 ITERATION:       4
 SUBSPACE:         21
 VECTORS INSIDE:    3
 Vector: 2 Converged
 VectorsError (crit) =       0.0000000 ( 1.00E-07) - EnergyError (crit) =       0.0000004 ( 1.00E-07)
 
 ITERATION:       5
 SUBSPACE:         23
 VECTORS INSIDE:    2
 Vector: 1 Converged
 Vector: 2 Converged
 Vector: 3 Converged
 VectorsError (crit) =       0.0000000 ( 1.00E-07) - EnergyError (crit) =       0.0000000 ( 1.00E-07)
 
 CONVERGED IN: 5 ITERATIONS
 STATE 1      ENERGY=  0.1454 Hartree,   313.317802 nm OSC=  0.0117
   21  -> 22         0.7054600
  
 STATE 2      ENERGY=  0.1680 Hartree,   271.182536 nm OSC=  0.0000
   21  -> 23         0.7065967
  
 STATE 3      ENERGY=  0.2048 Hartree,   222.449883 nm OSC=  0.0000
   19  -> 22        -0.7022962
  
 FORM RELAXED DENSITY MATRIX FOR EXCITED STATE:  2
 
 
 =======================================
             Z-VECTOR METHOD
 =======================================
 
 Start PCG loop
 Iteration =  1 Error (crit) = 1.27E-03 ( 1.00E-12)
 Iteration =  2 Error (crit) = 1.41E-05 ( 1.00E-12)
 Iteration =  3 Error (crit) = 1.18E-06 ( 1.00E-12)
 Iteration =  4 Error (crit) = 1.19E-08 ( 1.00E-12)
 Iteration =  5 Error (crit) = 4.82E-10 ( 1.00E-12)
 Iteration =  6 Error (crit) = 4.95E-11 ( 1.00E-12)
 Iteration =  7 Error (crit) = 5.43E-13 ( 1.00E-12)
 Convergence achieved in  7 itertaions
 *Excited State Gradients
 Lio  E(H)  -263.76086147097959     
 Lio  E(eV)  -7177.3012856044024     


hybrid: Potential Energy Decomposition (eV):
Elio :              -7177.301285604402
Etots:                -7177.301285604402

hybrid: Atomic forces (eV/Ang):
     1   -2.834794   -4.494545    0.003187
     2    2.474072    4.701806   -0.002395
     3    2.831979    4.492730   -0.002889
     4   -2.473965   -4.698370    0.002270
     5    0.184602    0.174295   -0.000681
     6   -0.058664   -0.246954   -0.000115
     7   -0.184336   -0.174284    0.000018
     8    0.058729    0.246705    0.000036
     9    1.847829    3.197179   -0.001840
    10   -1.845467   -3.198556    0.002408
-------------------------------------------
 Tot   -0.000015    0.000007   -0.000001
-------------------------------------------
 Max              4.701806  free, atom      2
 Res              2.163296  sqrt( Sum f_i^2 / 3N )
-------------------------------------------
 Max              4.701806  cons, atom      2
 Electronic Interpolation in TSH-LIO


hybrid: Potential Energy Decomposition (eV):
Elio :              -7177.301285604402
Etots:                -7177.301285604402
 NO HOPP
hybrid: Temperature Antes:          299.999999999999943157
 K
hybrid: Kinetic Energy (eV):            0.387764999999999971
hybrid: Total Energy + Kinetic (eV):        -7176.913520604402947356
hybrid: System Temperature:          299.999999999999943157
 K
hybrid: QM SubSystem Temperature:          299.999999999999943157
 K
 recibi energia:   -263.76086147097959     

hybrid:                 ==============================
                            Begin move =      1
                        ==============================
 Optimization level:            3
 atoms QM, MM, totals          10           0          10
 doing SCF? T
 doing forces? T
 
 LIBINT initialization
 Computing Precalculated Integrals
 # of {all, non-negligible} shell-pairs = {741, 728}
 Saving Integrals in Memory
 # of Integrals: 1957020
 Memory requirements 0.0156562 GB
 Deallocate Memory Integrals

Starting SCF cycles.
  Convergence criteria are: 
   1.00E-06 in Rho mean squared difference,  1.00E-01 Eh in energy differences.
  Step =    1 |Energy =   -227.280542 Eh |ΔRho =  1.47E-03 -ΔEnergy =  2.27E+02
  Step =    2 |Energy =   -227.280581 Eh |ΔRho =  1.12E-04 -ΔEnergy =  3.88E-05
  Step =    3 |Energy =   -227.280793 Eh |ΔRho =  5.63E-04 -ΔEnergy =  2.11E-04
  Step =    4 |Energy =   -227.281659 Eh |ΔRho =  7.28E-05 -ΔEnergy =  8.67E-04
  Step =    5 |Energy =   -227.281391 Eh |ΔRho =  2.75E-05 -ΔEnergy =  2.68E-04
  Step =    6 |Energy =   -227.281483 Eh |ΔRho =  9.40E-06 -ΔEnergy =  9.21E-05
  Step =    7 |Energy =   -227.281502 Eh |ΔRho =  3.97E-06 -ΔEnergy =  1.82E-05
  Step =    8 |Energy =   -227.281497 Eh |ΔRho =  8.36E-07 -ΔEnergy =  4.81E-06
  Convergence achieved in      8 iterations. Final energy   -227.2814969 A.U.
 *FCA is not used
 Saving density and derivatives of Ground State
 
 =======================================
         LINEAR RESPONSE - TDA
 =======================================
 
 NCO, NVIRT, M, Mlr                       21   41   62   62
 DIMENSION OF FULL MATRIX             861
 MAX SUBSPACE                       400     
 MAX ITERATIONES                    50
 NUMBER OF INITIAL TRIALS VECTORS     12
 USING FITTING TO ERI?   F
 
 ITERATION:       1
 SUBSPACE:         12
 VECTORS INSIDE:   12
 VectorsError (crit) =       0.0022275 ( 1.00E-07) - EnergyError (crit) =       0.8523674 ( 1.00E-07)
 
 ITERATION:       2
 SUBSPACE:         15
 VECTORS INSIDE:    3
 VectorsError (crit) =       0.0000283 ( 1.00E-07) - EnergyError (crit) =       0.0028479 ( 1.00E-07)
 
 ITERATION:       3
 SUBSPACE:         18
 VECTORS INSIDE:    3
 VectorsError (crit) =       0.0000008 ( 1.00E-07) - EnergyError (crit) =       0.0000368 ( 1.00E-07)
 
 ITERATION:       4
 SUBSPACE:         21
 VECTORS INSIDE:    3
 VectorsError (crit) =       0.0000000 ( 1.00E-07) - EnergyError (crit) =       0.0000009 ( 1.00E-07)
 
 ITERATION:       5
 SUBSPACE:         24
 VECTORS INSIDE:    3
 Vector: 1 Converged
 Vector: 2 Converged
 Vector: 3 Converged
 VectorsError (crit) =       0.0000000 ( 1.00E-07) - EnergyError (crit) =       0.0000000 ( 1.00E-07)
 
 CONVERGED IN: 5 ITERATIONS
 STATE 1      ENERGY=  0.1456 Hartree,   312.974360 nm OSC=  0.0117
   21  -> 22         0.7054414
  
 STATE 2      ENERGY=  0.1678 Hartree,   271.559120 nm OSC=  0.0000
   21  -> 23        -0.7065804
  
 STATE 3      ENERGY=  0.2048 Hartree,   222.446415 nm OSC=  0.0000
   19  -> 22        -0.7021279
  
 FORM RELAXED DENSITY MATRIX FOR EXCITED STATE:  2
 
 
 =======================================
             Z-VECTOR METHOD
 =======================================
 
 Start PCG loop
 Iteration =  1 Error (crit) = 1.27E-03 ( 1.00E-12)
 Iteration =  2 Error (crit) = 2.12E-05 ( 1.00E-12)
 Iteration =  3 Error (crit) = 3.53E-06 ( 1.00E-12)
 Iteration =  4 Error (crit) = 4.19E-07 ( 1.00E-12)
 Iteration =  5 Error (crit) = 8.62E-09 ( 1.00E-12)
 Iteration =  6 Error (crit) = 1.72E-09 ( 1.00E-12)
 Iteration =  7 Error (crit) = 6.83E-11 ( 1.00E-12)
 Iteration =  8 Error (crit) = 1.19E-11 ( 1.00E-12)
 Iteration =  9 Error (crit) = 6.37E-13 ( 1.00E-12)
 Convergence achieved in  9 itertaions
 *Excited State Gradients
 Lio  E(H)  -263.76070559227509     
 Lio  E(eV)  -7177.2970439272249     


hybrid: Potential Energy Decomposition (eV):
Elio :              -7177.297043927226
Etots:                -7177.297043927226

hybrid: Atomic forces (eV/Ang):
     1   -3.082266   -3.799276   -0.034359
     2    2.210639    4.551561    0.041635
     3    2.648094    4.806962    0.017573
     4   -2.587537   -4.866708   -0.044772
     5    0.472141   -0.320036    0.016706
     6    0.223353   -0.284388   -0.029112
     7   -0.065632   -0.455706   -0.006972
     8    0.296859    0.289503    0.014002
     9    1.783959    3.301808    0.036586
    10   -1.898696   -3.224728   -0.011396
-------------------------------------------
 Tot    0.000914   -0.001010   -0.000110
-------------------------------------------
 Max              4.866708  free, atom      4
 Res              2.152320  sqrt( Sum f_i^2 / 3N )
-------------------------------------------
 Max              4.866708  cons, atom      4
 Electronic Interpolation in TSH-LIO


hybrid: Potential Energy Decomposition (eV):
Elio :              -7177.297043927226
Etots:                -7177.297043927226
 NO HOPP
hybrid: Temperature Antes:          296.879104468528737470
 K
hybrid: Kinetic Energy (eV):            0.383731086480796790
hybrid: Total Energy + Kinetic (eV):        -7176.913312840743856214
hybrid: System Temperature:          296.879104468528737470
 K
hybrid: QM SubSystem Temperature:          296.879104468528737470
 K
 recibi energia:   -263.76070559227509     

hybrid:                 ==============================
                            Begin move =      2
                        ==============================
 Optimization level:            3
 atoms QM, MM, totals          10           0          10
 doing SCF? T
 doing forces? T
 
 LIBINT initialization
 Computing Precalculated Integrals
 # of {all, non-negligible} shell-pairs = {741, 728}
 Saving Integrals in Memory
 # of Integrals: 1957020
 Memory requirements 0.015656160000 GB
 Deallocate Memory Integrals

Starting SCF cycles.
  Convergence criteria are: 
   1.00E-06 in Rho mean squared difference,  1.00E-01 Eh in energy differences.
  Step =    1 |Energy =   -227.280456 Eh |ΔRho =  1.44E-03 -ΔEnergy =  2.27E+02
  Step =    2 |Energy =   -227.280211 Eh |ΔRho =  9.90E-05 -ΔEnergy =  2.45E-04
  Step =    3 |Energy =   -227.280341 Eh |ΔRho =  5.06E-04 -ΔEnergy =  1.30E-04
  Step =    4 |Energy =   -227.280971 Eh |ΔRho =  6.82E-05 -ΔEnergy =  6.30E-04
  Step =    5 |Energy =   -227.280739 Eh |ΔRho =  2.67E-05 -ΔEnergy =  2.31E-04
  Step =    6 |Energy =   -227.280795 Eh |ΔRho =  9.57E-06 -ΔEnergy =  5.51E-05
  Step =    7 |Energy =   -227.280821 Eh |ΔRho =  4.02E-06 -ΔEnergy =  2.66E-05
  Step =    8 |Energy =   -227.280818 Eh |ΔRho =  8.20E-07 -ΔEnergy =  3.23E-06
  Convergence achieved in      8 iterations. Final energy   -227.2808180 A.U.
 *FCA is not used
 Saving density and derivatives of Ground State
 
 =======================================
         LINEAR RESPONSE - TDA
 =======================================
 
 NCO, NVIRT, M, Mlr                       21   41   62   62
 DIMENSION OF FULL MATRIX             861
 MAX SUBSPACE                       400     
 MAX ITERATIONES                    50
 NUMBER OF INITIAL TRIALS VECTORS     12
 USING FITTING TO ERI?   F
 
 ITERATION:       1
 SUBSPACE:         12
 VECTORS INSIDE:   12
 VectorsError (crit) =       0.0022267 ( 1.00E-07) - EnergyError (crit) =       0.8523730 ( 1.00E-07)
 
 ITERATION:       2
 SUBSPACE:         15
 VECTORS INSIDE:    3
 VectorsError (crit) =       0.0000286 ( 1.00E-07) - EnergyError (crit) =       0.0028489 ( 1.00E-07)
 
 ITERATION:       3
 SUBSPACE:         18
 VECTORS INSIDE:    3
 VectorsError (crit) =       0.0000009 ( 1.00E-07) - EnergyError (crit) =       0.0000367 ( 1.00E-07)
 
 ITERATION:       4
 SUBSPACE:         21
 VECTORS INSIDE:    3
 VectorsError (crit) =       0.0000000 ( 1.00E-07) - EnergyError (crit) =       0.0000012 ( 1.00E-07)
 
 ITERATION:       5
 SUBSPACE:         24
 VECTORS INSIDE:    3
 Vector: 1 Converged
 Vector: 2 Converged
 Vector: 3 Converged
 VectorsError (crit) =       0.0000000 ( 1.00E-07) - EnergyError (crit) =       0.0000000 ( 1.00E-07)
 
 CONVERGED IN: 5 ITERATIONS
 STATE 1      ENERGY=  0.1456 Hartree,   312.984278 nm OSC=  0.0116
   21  -> 22        -0.7054029
  
 STATE 2      ENERGY=  0.1665 Hartree,   273.690208 nm OSC=  0.0000
   21  -> 23         0.7065350
  
 STATE 3      ENERGY=  0.2052 Hartree,   222.058463 nm OSC=  0.0001
   19  -> 22         0.7015463
  
 FORM RELAXED DENSITY MATRIX FOR EXCITED STATE:  2
 
 
 =======================================
             Z-VECTOR METHOD
 =======================================
 
 Start PCG loop
 Iteration =  1 Error (crit) = 1.28E-03 ( 1.00E-12)
 Iteration =  2 Error (crit) = 4.10E-05 ( 1.00E-12)
 Iteration =  3 Error (crit) = 4.22E-06 ( 1.00E-12)
 Iteration =  4 Error (crit) = 4.53E-07 ( 1.00E-12)
 Iteration =  5 Error (crit) = 1.83E-08 ( 1.00E-12)
 Iteration =  6 Error (crit) = 2.45E-09 ( 1.00E-12)
 Iteration =  7 Error (crit) = 2.20E-10 ( 1.00E-12)
 Iteration =  8 Error (crit) = 3.04E-11 ( 1.00E-12)
 Iteration =  9 Error (crit) = 1.22E-12 ( 1.00E-12)
 Iteration = 10 Error (crit) = 2.36E-13 ( 1.00E-12)
 Convergence achieved in 10 itertaions
 *Excited State Gradients
 Lio  E(H)  -263.76093700201773     
 Lio  E(eV)  -7177.3033409094014     


hybrid: Potential Energy Decomposition (eV):
Elio :              -7177.303340909401
Etots:                -7177.303340909401

hybrid: Atomic forces (eV/Ang):
     1   -3.257908   -2.999219   -0.061575
     2    1.915873    4.283635    0.077785
     3    2.406118    4.959912    0.039972
     4   -2.607220   -4.903550   -0.096831
     5    0.757592   -0.829026    0.023474
     6    0.495933   -0.310866   -0.048630
     7    0.030890   -0.679256   -0.014963
     8    0.489772    0.322668    0.031015
     9    1.689495    3.350838    0.076056
    10   -1.918881   -3.197120   -0.026461
-------------------------------------------
 Tot    0.001663   -0.001984   -0.000157
-------------------------------------------
 Max              4.959912  free, atom      3
 Res              2.107840  sqrt( Sum f_i^2 / 3N )
-------------------------------------------
 Max              4.959912  cons, atom      3
 Electronic Interpolation in TSH-LIO


hybrid: Potential Energy Decomposition (eV):
Elio :              -7177.303340909401
Etots:                -7177.303340909401
 NO HOPP
hybrid: Temperature Antes:          302.164585885436338231
 K
hybrid: Kinetic Energy (eV):            0.390562835486220727
hybrid: Total Energy + Kinetic (eV):        -7176.912778073915433197
hybrid: System Temperature:          302.164585885436338231
 K
hybrid: QM SubSystem Temperature:          302.164585885436338231
 K
 recibi energia:   -263.76093700201773     

hybrid:                 ==============================
                            Begin move =      3
                        ==============================
 Optimization level:            3
 atoms QM, MM, totals          10           0          10
 doing SCF? T
 doing forces? T
 
 LIBINT initialization
 Computing Precalculated Integrals
 # of {all, non-negligible} shell-pairs = {741, 728}
 Saving Integrals in Memory
 # of Integrals: 1957020
 Memory requirements 0.015656160000 GB
 Deallocate Memory Integrals

Starting SCF cycles.
  Convergence criteria are: 
   1.00E-06 in Rho mean squared difference,  1.00E-01 Eh in energy differences.
  Step =    1 |Energy =   -227.279695 Eh |ΔRho =  1.43E-03 -ΔEnergy =  2.27E+02
  Step =    2 |Energy =   -227.279376 Eh |ΔRho =  8.05E-05 -ΔEnergy =  3.19E-04
  Step =    3 |Energy =   -227.279421 Eh |ΔRho =  4.26E-04 -ΔEnergy =  4.45E-05
  Step =    4 |Energy =   -227.279844 Eh |ΔRho =  6.32E-05 -ΔEnergy =  4.24E-04
  Step =    5 |Energy =   -227.279630 Eh |ΔRho =  2.70E-05 -ΔEnergy =  2.14E-04
  Step =    6 |Energy =   -227.279644 Eh |ΔRho =  9.32E-06 -ΔEnergy =  1.32E-05
  Step =    7 |Energy =   -227.279686 Eh |ΔRho =  3.99E-06 -ΔEnergy =  4.21E-05
  Step =    8 |Energy =   -227.279683 Eh |ΔRho =  9.48E-07 -ΔEnergy =  3.06E-06
  Convergence achieved in      8 iterations. Final energy   -227.2796826 A.U.
 *FCA is not used
 Saving density and derivatives of Ground State
 
 =======================================
         LINEAR RESPONSE - TDA
 =======================================
 
 NCO, NVIRT, M, Mlr                       21   41   62   62
 DIMENSION OF FULL MATRIX             861
 MAX SUBSPACE                       400     
 MAX ITERATIONES                    50
 NUMBER OF INITIAL TRIALS VECTORS     12
 USING FITTING TO ERI?   F
 
 ITERATION:       1
 SUBSPACE:         12
 VECTORS INSIDE:   12
 VectorsError (crit) =       0.0022267 ( 1.00E-07) - EnergyError (crit) =       0.8525457 ( 1.00E-07)
 
 ITERATION:       2
 SUBSPACE:         15
 VECTORS INSIDE:    3
 VectorsError (crit) =       0.0000292 ( 1.00E-07) - EnergyError (crit) =       0.0028515 ( 1.00E-07)
 
 ITERATION:       3
 SUBSPACE:         18
 VECTORS INSIDE:    3
 VectorsError (crit) =       0.0000010 ( 1.00E-07) - EnergyError (crit) =       0.0000366 ( 1.00E-07)
 
 ITERATION:       4
 SUBSPACE:         21
 VECTORS INSIDE:    3
 VectorsError (crit) =       0.0000000 ( 1.00E-07) - EnergyError (crit) =       0.0000013 ( 1.00E-07)
 
 ITERATION:       5
 SUBSPACE:         24
 VECTORS INSIDE:    3
 Vector: 1 Converged
 Vector: 2 Converged
 Vector: 3 Converged
 VectorsError (crit) =       0.0000000 ( 1.00E-07) - EnergyError (crit) =       0.0000000 ( 1.00E-07)
 
 CONVERGED IN: 5 ITERATIONS
 STATE 1      ENERGY=  0.1454 Hartree,   313.343770 nm OSC=  0.0113
   21  -> 22         0.7053448
  
 STATE 2      ENERGY=  0.1641 Hartree,   277.574284 nm OSC=  0.0000
   21  -> 23         0.7064634
  
 STATE 3      ENERGY=  0.2059 Hartree,   221.302846 nm OSC=  0.0002
   19  -> 22         0.7003171
  