SystemName     H2O2
SystemLabel   H2O2            
CenterMolecule T    
NumberOfAtoms         4
NumberOfSpecies      2
NetCharge 0.0       
FixSpin  T          
TotalSpin 0.0       
MD.MaxForceTol    0.04 eV/Ang 
NumberOfSolventAtoms      0


%block ConstrainedOpt
nconstr 1
steps 50
type 2
kte 200
inicoord 1.200 fincoord  3.100
atoms 1 2
%endblock ConstrainedOpt


%block ChemicalSpeciesLabel   
       1   8  O 
       2   1  H 
%endblock ChemicalSpeciesLabel
 
AtomicCoordinatesFormat  Ang  
%block AtomicCoordinatesAndAtomicSpecies
   0.00000   0.00000   0.000000        1
   0.00000   0.00000   1.480000        1
   0.89567   0.00000  -0.316663        2
  -0.44783   0.77567   1.796667        2
%endblock AtomicCoordinatesAndAtomicSpecies
 
%block SoluteAtomTypes   
  OH  O1    AOX
  OH  O2    AOX
  HO  H1    AOX
  HO  H2    AOX
%endblock SoluteAtomTypes
 
%block CutOffRadius       
QM  0.2                   
QMMM 100.0                 
MM 80.0                    
BLO 80.0                   a
MMBLO 4.0
%endblock CutOffRadius    
 
 
DM.UseSaveDM   F                                                                 
MD.USeSaveXV   F                                                                 
MD.UseSaveCG   F                                                                 
LongOutput    F                                                                  

MD.TypeOfRun    CG                                                               
MD.NumCGsteps   500   

%block SolventInput   
%endblock SolventInput
